log/Reading instance from file data/g01.dat
Number of nodes: 11
Number of edges: 32
initialize CPLEX ... done.
Calling CPLEX solve ...
Version identifier: 12.10.0.0 | 2019-11-26 | 843d4de
CPXPARAM_Threads                                 1
CPXPARAM_TimeLimit                               3600
CPXPARAM_WorkMem                                 8192
Tried aggregator 1 time.
MIP Presolve eliminated 23 rows and 12 columns.
MIP Presolve modified 97 coefficients.
Reduced MIP has 87 rows, 74 columns, and 354 nonzeros.
Reduced MIP has 64 binaries, 10 generals, 0 SOSs, and 0 indicators.
Presolve time = 0.00 sec. (0.30 ticks)
Probing time = 0.00 sec. (0.11 ticks)
Tried aggregator 1 time.
Detecting symmetries...
Reduced MIP has 87 rows, 74 columns, and 354 nonzeros.
Reduced MIP has 64 binaries, 10 generals, 0 SOSs, and 0 indicators.
Presolve time = 0.00 sec. (0.24 ticks)
Probing time = 0.00 sec. (0.11 ticks)
Clique table members: 77.
MIP emphasis: balance optimality and feasibility.
MIP search method: dynamic search.
Parallel mode: none, using 1 thread.
Root relaxation solution time = 0.00 sec. (0.16 ticks)

        Nodes                                         Cuts/
   Node  Left     Objective  IInf  Best Integer    Best Bound    ItCnt     Gap

      0     0      260.0000     6                    260.0000       30         
      0     0      359.0000     6                    Cuts: 18       52         
      0     0      447.0000     6                    Cuts: 20       61         
      0     0      447.0000     6                    Cuts: 12       69         
      0     0      457.0000     6                     Cuts: 7       71         
      0     0      477.0000     6                 ZeroHalf: 3       75         
*     0+    0                          477.0000      477.0000             0.00%
      0     0        cutoff            477.0000      477.0000       75    0.00%
Elapsed time = 0.01 sec. (4.40 ticks, tree = 0.01 MB, solutions = 1)

Clique cuts applied:  7
Implied bound cuts applied:  4
Zero-half cuts applied:  2
Gomory fractional cuts applied:  3

Root node processing (before b&c):
  Real time             =    0.01 sec. (4.40 ticks)
Sequential b&c:
  Real time             =    0.00 sec. (0.00 ticks)
                          ------------
Total (root+branch&cut) =    0.01 sec. (4.40 ticks)
SOLUTION:

x(1,3)[0..1]  = 1
x(3,6)[0..1]  = 1
x(6,7)[0..1]  = 1
x(7,10)[0..1]  = 1
z(1)[0..1]  = 1
z(3)[0..1]  = 1
z(6)[0..1]  = 1
z(7)[0..1]  = 1
z(10)[0..1]  = 1


CPLEX finished.

CPLEX status: Optimal
Branch-and-Bound nodes: 0
Objective value: 477
CPU time: 0

